200
100
100
100
99
99
98
97
97
97
96
96
95
95
95
95
94
94
94
93
93
92
92
92
92
91
90
90
90
90
89
89
88
88
88
88
87
87
85
84
83
83
83
82
82
82
82
81
81
81
81
79
79
79
78
78
78
78
77
77
77
77
76
76
75
73
73
72
71
70
70
70
70
70
70
69
69
69
67
67
66
66
66
66
65
65
65
65
63
63
63
63
62
62
61
61
61
61
61
60
60
59
59
59
58
58
56
55
55
55
54
53
52
52
52
51
50
49
49
49
49
48
48
48
48
48
47
47
47
46
46
46
45
45
45
45
45
45
45
44
44
44
43
43
43
43
43
42
42
41
41
41
41
41
40
40
39
38
38
37
37
36
36
36
35
34
33
33
33
32
32
32
31
31
30
30
30
29
29
27
27
27
26
26
26
25
24
23
23
22
22
22
22
22
21
21
21
21
21
20
20
20
